% data         = prepare6.dzn
% model        = prepare_modded.mzn
% base         = prepare6
% round        = 1
% s_annotation = int_search(s, largest, indomain_median)
% limit_s      = 30
% Generated FlatZinc statistics:
%%%mzn-stat: paths=0
%%%mzn-stat: flatBoolVars=280
%%%mzn-stat: flatIntVars=114
%%%mzn-stat: flatBoolConstraints=140
%%%mzn-stat: flatIntConstraints=313
%%%mzn-stat: evaluatedHalfReifiedConstraints=280
%%%mzn-stat: method="minimize"
%%%mzn-stat: flatTime=0.0725277
%%%mzn-stat-end

makespan = 41
 22  27  14  37   1  15   6  29  32   8  34  19  26  35  23  27  32  15   0   0 
----------
%%%mzn-stat: initTime=0.016625
%%%mzn-stat: solveTime=4.39854
%%%mzn-stat: solutions=8
%%%mzn-stat: variables=394
%%%mzn-stat: propagators=453
%%%mzn-stat: propagations=2203085
%%%mzn-stat: nodes=116134
%%%mzn-stat: failures=58045
%%%mzn-stat: restarts=0
%%%mzn-stat: peakDepth=57
%%%mzn-stat-end
